c   #vars: 43   #clauses: 186   #literals: 554
c 
p cnf 43 186
-1 -2 0
-3 -4 0
10 11 29 30 0
15 16 35 36 0
25 33 34 -42 0
-5 -6 0
-8 -9 0
-10 -11 0
-5 8 9 19 0
-13 -14 0
-15 -16 0
-17 -18 0
23 31 32 -40 0
-7 28 -33 37 0
-21 -22 0
5 6 -10 24 0
25 -33 42 43 0
7 -28 29 30 0
12 -40 42 43 0
-26 -27 0
17 18 -21 -22 0
-29 -30 0
-31 -32 0
-33 -34 0
-35 -36 0
7 -18 28 37 0
-38 -39 0
17 18 35 36 0
-40 -41 0
15 16 20 -36 0
5 6 38 39 0
-42 -43 0
-13 23 31 32 0
-2 -19 0
-1 5 6 19 0
-1 -20 0
-7 28 33 34 37 0
8 9 40 41 0
-1 -31 0
-2 -32 0
-1 -33 0
-2 -34 0
-16 20 29 30 0
-3 -26 0
-4 -27 0
23 -31 40 41 0
-3 -29 0
-4 -30 0
8 9 17 18 0
-3 -35 0
-4 -36 0
26 27 33 34 0
-3 -42 0
-4 -43 0
15 16 21 22 0
-7 28 33 34 0
21 22 38 39 0
1 2 -16 20 0
7 17 18 -37 0
-17 -18 21 22 0
13 14 23 -40 0
-6 -19 0
-5 -21 0
-6 -22 0
-13 23 40 41 0
25 -31 42 43 0
-6 -24 0
-5 -35 0
-6 -36 0
13 14 42 43 0
-5 -38 0
-6 -39 0
25 -31 33 34 0
-7 -17 0
-16 20 35 36 0
-7 -26 0
-7 -29 0
13 14 38 39 0
7 28 -33 -37 0
20 29 30 -36 0
-8 -17 0
-9 -18 0
12 38 39 -40 0
13 14 23 -31 0
-9 -19 0
5 6 35 36 0
25 31 32 -42 0
-9 -24 0
-8 -40 0
-9 -41 0
-10 -17 0
-11 -18 0
12 40 41 -42 0
25 31 32 -33 0
-11 -24 0
-10 -26 0
-11 -27 0
7 26 27 -37 0
-10 -29 0
-11 -30 0
3 4 29 30 0
-10 -40 0
-11 -41 0
5 6 -8 19 0
-1 8 9 19 0
-12 -39 0
1 2 -8 19 0
-12 -41 0
21 22 29 30 0
1 2 -5 19 0
-12 -43 0
5 6 -8 24 0
-14 -23 0
-5 10 11 24 0
-13 -31 0
-14 -32 0
12 -38 40 41 0
-13 -38 0
-14 -39 0
-7 17 18 37 0
-13 -42 0
-14 -43 0
13 14 31 32 0
-15 -20 0
-7 -17 28 37 0
1 2 31 32 0
-15 -21 0
-16 -22 0
-2 20 29 30 0
-15 -33 0
-16 -34 0
-8 10 11 24 0
-15 -35 0
-16 -36 0
10 11 40 41 0
-17 -35 0
-18 -36 0
7 29 30 -37 0
-18 -37 0
3 4 35 36 0
15 16 20 -30 0
-20 -29 0
-7 28 37 0
5 6 21 22 0
-20 -35 0
7 17 18 -28 0
15 16 33 34 0
-21 -29 0
-22 -30 0
3 4 42 43 0
-21 -38 0
-22 -39 0
10 11 26 27 0
-2 15 16 20 0
3 4 26 27 0
8 9 -10 24 0
-23 -32 0
-17 28 -33 37 0
-5 8 9 24 0
-23 -41 0
7 26 27 -28 0
-25 -32 0
20 -30 35 36 0
1 2 20 -36 0
-25 -34 0
1 2 20 -30 0
-2 20 35 36 0
-25 -43 0
12 -38 42 43 0
7 -27 28 37 0
12 38 39 -42 0
7 28 -30 37 0
26 27 29 30 0
-26 -29 0
-27 -30 0
-26 -33 0
-27 -34 0
10 11 17 18 0
-26 -40 0
-27 -41 0
1 2 33 34 0
7 -17 -28 37 0
-28 -34 0
26 27 40 41 0
17 18 28 33 34 37 0
-28 -37 0
